(declare-fun y () Int)
(declare-fun x () Int)

(assert (
and (and (and (and (
not (= (/ x (- x 5)) (/ y (* 84 33)))
) (
not (= (+ (* 27 13) x) (/ y 41))
)) (
<= (/ (* 38 (/ y (/ 44 59))) (/ (/ 66 58) 6)) (+ 85 x)
)) (and (and (
>= (/ y 16) (- (/ 24 45) (* x (- x x)))
) (
= (/ (/ y 44) (* (* 5 3) (* (* 44 68) 49))) (- x x)
)) (
< (/ (/ (/ y 15) 16) 9) (- (- 67 86) (* x (/ x x)))
))) (and (and (and (
<= (/ 11 (* x 57)) (/ (/ (* 84 y) (/ 9 7)) 79)
) (
>= y (+ (- 25 (- (* (- x x) x) 95)) (+ x 49))
)) (
>= (- (- x 18) 55) (* (* 69 71) y)
)) (and (
>= (* (/ 66 90) (/ y 61)) (/ (* x 15) (/ x x))
) (
= (* 73 x) (/ (* (* 13 (* 17 22)) y) 85)
)))
))